Minimize 
 obj1: x(1) 
Subject To 
 c1: y(0) + y(1) + y(2) + y(3) + y(4) + y(5) + y(6) + y(7) + y(8) + y(9) + 
     y(10) = 1 
 c2: x(1) + x(2) - 40 y(0) >= - 40 
 c3: 1 x(1) + 0 x(2) - 40 y(1) >= -60.0 
 c4: 0 x(1) + 1 x(2) - 40 y(1) >= -20.0 
 c5: 1 x(1) + 0 x(2) - 40 y(2) >= -56.8937 
 c6: 0 x(1) + 1 x(2) - 40 y(2) >= -23.1063 
 c7: 1 x(1) + 0 x(2) - 40 y(3) >= -56.8937 
 c8: 0 x(1) + 1 x(2) - 40 y(3) >= -25.6618 
 c9: 1 x(1) + 0 x(2) - 40 y(4) >= -54.3382 
 c10: 0 x(1) + 1 x(2) - 40 y(4) >= -25.6618 
 c11: 1 x(1) + 0 x(2) - 40 y(5) >= -52.5273 
 c12: 0 x(1) + 1 x(2) - 40 y(5) >= -27.4727 
 c13: 1 x(1) + 0 x(2) - 40 y(6) >= -52.5273 
 c14: 0 x(1) + 1 x(2) - 40 y(6) >= -30.0281 
 c15: 1 x(1) + 0 x(2) - 40 y(7) >= -49.9719 
 c16: 0 x(1) + 1 x(2) - 40 y(7) >= -30.0281 
 c17: 1 x(1) + 0 x(2) - 40 y(8) >= -49.8307 
 c18: 0 x(1) + 1 x(2) - 40 y(8) >= -30.1692 
 c19: 1 x(1) + 0 x(2) - 40 y(9) >= -49.8307 
 c20: 0 x(1) + 1 x(2) - 40 y(9) >= -32.7246 
 c21: 1 x(1) + 0 x(2) - 40 y(10) >= -47.2754 
 c22: 0 x(1) + 1 x(2) - 40 y(10) >= -32.7246 
 obj2: x(2) = 0 
Bounds 
 -20 <= x(1) <= 20 
 -20 <= x(2) <= 20 
Binaries 
 y(0)  y(1)  y(2)  y(3)  y(4)  y(5)  y(6)  y(7)  y(8)  y(9) 
 y(10) 
End